1   18   6
6   3   1   27   2   27   3   27   3   4   20   5   20   6   20   3   7   27   8   27   9   27   3   10   24   11   24   12   24   3   13   14   14   14   15   14   3   16   13   17   13   18   13   
